
Gurobi 7.5.2 (mac64) logging started Sat Nov 18 21:38:32 2017

Academic license - for non-commercial use only
Optimize a model with 3 rows, 4 columns and 10 nonzeros
Coefficient statistics:
  Matrix range     [1e+00, 9e+00]
  Objective range  [2e+00, 7e+00]
  Bounds range     [4e-01, 2e+01]
  RHS range        [8e+00, 2e+01]
Presolve removed 3 rows and 4 columns
Presolve time: 0.00s
Presolve: All rows and columns removed
Iteration    Objective       Primal Inf.    Dual Inf.      Time
       0    3.0342857e+01   0.000000e+00   0.000000e+00      0s

Solved in 0 iterations and 0.00 seconds
Optimal objective  3.034285714e+01
